c FILE /home/rafael/Documents/HappySet/MIHS/inputs/happygen/output/graph_scale_free_k4_p0.1_v50_20241127_082423.txt
c SOURCE This is a scale-free graph formed for the happy graph colouring problem.
c DESCRIPTION It was generated using the problem generator of Rhyd Lewis
c
c GRAPH STATS
c Seed                             = -930374320
c Number of Nodes                  = 50
c Number of colours k              = 4
c Number of pre-assignments        = 5
c Number of links per new node     = 5
c Density                          = 0.191837
c 
c The degrees of nodes 1 to 50, respectively, are as follows 
c [26, 25, 23, 22, 19, 18, 16, 16, 14, 14, 12, 12, 10, 9, 9, 9, 8, 8, 8, 8, 8, 7, 7, 7, 7, 7, 
c  7, 7, 7, 7, 7, 6, 6, 6, 6, 6, 6, 6, 6, 6, 6, 6, 5, 5, 5, 5, 5, 5, 5, 5] 
c  
p edge 50 235 4
e 1 2
e 1 3
e 1 4
e 1 5
e 1 6
e 1 7
e 1 8
e 1 9
e 1 10
e 1 11
e 1 12
e 1 17
e 1 19
e 1 21
e 1 22
e 1 24
e 1 26
e 1 27
e 1 30
e 1 31
e 1 34
e 1 35
e 1 40
e 1 43
e 1 47
e 1 48
e 2 3
e 2 4
e 2 5
e 2 6
e 2 7
e 2 8
e 2 9
e 2 10
e 2 12
e 2 14
e 2 18
e 2 20
e 2 22
e 2 24
e 2 31
e 2 33
e 2 35
e 2 36
e 2 37
e 2 40
e 2 44
e 2 45
e 2 47
e 2 49
e 3 4
e 3 5
e 3 6
e 3 7
e 3 8
e 3 9
e 3 10
e 3 11
e 3 12
e 3 14
e 3 16
e 3 19
e 3 22
e 3 25
e 3 32
e 3 33
e 3 34
e 3 37
e 3 39
e 3 46
e 3 50
e 4 5
e 4 6
e 4 7
e 4 9
e 4 11
e 4 13
e 4 14
e 4 16
e 4 18
e 4 19
e 4 20
e 4 22
e 4 23
e 4 25
e 4 27
e 4 33
e 4 37
e 4 40
e 4 44
e 5 7
e 5 10
e 5 13
e 5 14
e 5 15
e 5 23
e 5 24
e 5 26
e 5 27
e 5 34
e 5 39
e 5 42
e 5 45
e 5 49
e 5 50
e 6 7
e 6 11
e 6 12
e 6 13
e 6 17
e 6 18
e 6 23
e 6 28
e 6 30
e 6 31
e 6 32
e 6 36
e 6 37
e 6 44
e 7 9
e 7 13
e 7 15
e 7 17
e 7 20
e 7 22
e 7 25
e 7 35
e 7 41
e 7 44
e 8 10
e 8 11
e 8 12
e 8 15
e 8 17
e 8 20
e 8 24
e 8 26
e 8 27
e 8 34
e 8 41
e 8 43
e 8 45
e 9 10
e 9 11
e 9 17
e 9 29
e 9 32
e 9 34
e 9 36
e 9 42
e 9 47
e 10 13
e 10 18
e 10 20
e 10 23
e 10 26
e 10 28
e 10 37
e 10 38
e 11 14
e 11 16
e 11 18
e 11 28
e 11 39
e 11 50
e 12 21
e 12 23
e 12 24
e 12 25
e 12 30
e 12 33
e 12 41
e 13 19
e 13 29
e 13 32
e 13 38
e 13 43
e 14 31
e 14 32
e 14 35
e 14 50
e 15 18
e 15 33
e 15 36
e 15 38
e 15 40
e 15 44
e 16 21
e 16 25
e 16 27
e 16 28
e 16 29
e 16 30
e 17 19
e 17 31
e 17 38
e 18 30
e 18 40
e 19 33
e 19 39
e 19 45
e 20 43
e 20 47
e 20 49
e 21 22
e 21 26
e 21 36
e 21 42
e 21 46
e 22 46
e 23 25
e 23 35
e 24 27
e 24 39
e 25 26
e 26 29
e 27 47
e 28 36
e 28 38
e 28 46
e 29 32
e 29 48
e 29 50
e 30 41
e 30 46
e 31 42
e 31 49
e 34 42
e 35 43
e 37 48
e 38 41
e 39 45
e 40 48
e 41 48
e 42 49
n 8 2
n 29 4
n 34 2
n 36 1
n 47 3
